(declare-fun n () (_ BitVec 296))
(declare-fun nc () (_ BitVec 2))
(assert (= ((_ extract 295 295) n) ((_ extract 1 1) nc)))
(assert (= ((_ extract 295 295) n) ((_ extract 0 0) nc)))
(declare-fun nca () (_ BitVec 4))
(assert (= nc ((_ extract 3 2) nca)))
(assert (= nc ((_ extract 1 0) nca)))
(declare-fun at () (_ BitVec 8))
(assert (= nca ((_ extract 7 4) at)))
(assert (= nca ((_ extract 3 0) at)))
(declare-fun cat () (_ BitVec 16))
(assert (= at ((_ extract 15 8) cat)))
(assert (= at ((_ extract 7 0) cat)))
(declare-fun t_ () (_ BitVec 32))
(assert (= cat ((_ extract 31 16) t_)))
(assert (= cat ((_ extract 15 0) t_)))
(declare-fun a () (_ BitVec 64))
(assert (= t_ ((_ extract 63 32) a)))
(assert (= t_ ((_ extract 31 0) a)))
(declare-fun ncat () (_ BitVec 128))
(assert (= a ((_ extract 127 64) ncat)))
(assert (= a ((_ extract 63 0) ncat)))
(declare-fun ca () (_ BitVec 256))
(assert (= ncat ((_ extract 255 128) ca)))
(assert (= ncat ((_ extract 127 0) ca)))
(declare-fun c () (_ BitVec 512))
(assert (= ca ((_ extract 511 256) c)))
(assert (= ca ((_ extract 255 0) c)))
(assert (not (= (bvashr n n) ((_ extract 295 0) c))))
(check-sat)
